
Gurobi 8.1.1 (win64) logging started 11/28/19 01:00:38

Changed value of parameter LogFile to logs/drand/qp/drand-10-110-1.log
   Prev: gurobi.log  Default: 
Changed value of parameter LogToConsole to 0
   Prev: 1  Min: 0  Max: 1  Default: 1
Changed value of parameter TimeLimit to 3600.0
   Prev: 1e+100  Min: 0.0  Max: 1e+100  Default: 1e+100
Optimize a model with 1 rows, 505 columns and 1 nonzeros
Model has 10 quadratic constraints
Variable types: 0 continuous, 505 integer (505 binary)
Coefficient statistics:
  Matrix range     [1e+00, 1e+00]
  QMatrix range    [1e+00, 1e+00]
  Objective range  [1e+00, 1e+00]
  Bounds range     [1e+00, 1e+00]
  RHS range        [1e+00, 1e+00]
  QRHS range       [1e+00, 1e+00]
Found heuristic solution: objective 505.0000000
Presolve removed 1 rows and 1 columns
Presolve time: 0.11s
Presolved: 0 rows, 504 columns, 0 nonzeros
Variable types: 0 continuous, 504 integer (504 binary)

Root relaxation: objective 1.000000e+00, 0 iterations, 0.02 seconds

    Nodes    |    Current Node    |     Objective Bounds      |     Work
 Expl Unexpl |  Obj  Depth IntInf | Incumbent    BestBd   Gap | It/Node Time

     0     0    2.00000    0    2  505.00000    2.00000   100%     -    0s
H    0     0                      12.0000000    2.00000  83.3%     -    0s
     0     0    2.00000    0    2   12.00000    2.00000  83.3%     -    0s
H    0     0                      11.0000000    2.00000  81.8%     -    0s
     0     2    2.00000    0    2   11.00000    2.00000  81.8%     -    0s
H   29    16                       9.0000000    2.00000  77.8%   1.0    0s
H  172    78                       8.0000000    2.00000  75.0%   1.0    2s
   329   141    2.00000   79    -    8.00000    2.00000  75.0%   1.0    5s
   472   225    2.00000  117    2    8.00000    2.00000  75.0%   1.0   10s
   624   286    2.00000  154    2    8.00000    2.00000  75.0%   1.0   16s
   754   351    2.00000  185    -    8.00000    2.00000  75.0%   1.0   20s
   869   404    2.00000  214    -    8.00000    2.00000  75.0%   1.0   25s
   949   457    3.00000  228    -    8.00000    2.00000  75.0%   1.0   30s
  1058   497    2.00000  260    -    8.00000    2.00000  75.0%   1.0   36s
  1133   544    2.00000  279    -    8.00000    2.00000  75.0%   1.0   40s
  1268   582    2.40000  314    3    8.00000    2.00000  75.0%   1.0   47s
  1322   617    3.00000  262    2    8.00000    2.00000  75.0%   1.0   50s
  1435   626    6.00000  341    -    8.00000    2.00000  75.0%   1.0   56s
  1529   681    7.00000  343    2    8.00000    2.00000  75.0%   1.0   61s
  1614   721    7.00000  345    2    8.00000    2.00000  75.0%   1.0   67s
  1654   742    3.00000  120    2    8.00000    2.00000  75.0%   1.0   70s
  1809   742    3.00000  284    2    8.00000    2.00000  75.0%   1.0   78s
  1871   748    3.00000  311    2    8.00000    2.00000  75.0%   1.0   84s
  1877   750    5.00000  315    -    8.00000    2.00000  75.0%   1.0   85s
  1974   796    5.00000  339    -    8.00000    2.00000  75.0%   1.0   90s
  2032   824    6.50000  365    1    8.00000    2.00000  75.0%   1.0   97s
  2161   861    7.00000  410    -    8.00000    3.00000  62.5%   1.1  103s
  2327   977    7.00000  410    -    8.00000    3.00000  62.5%   1.1  109s
  2333   983    4.00000   32    -    8.00000    3.00000  62.5%   1.1  110s
  2410   999    4.00000  136    2    8.00000    3.00000  62.5%   1.1  119s
  2508  1000    3.00000  314    -    8.00000    3.00000  62.5%   1.1  128s
  2594  1021    3.00000  314    -    8.00000    3.00000  62.5%   1.1  139s
  2704  1059    3.00000  314    -    8.00000    3.00000  62.5%   1.1  149s
  2720  1071    4.00000  295    -    8.00000    3.00000  62.5%   1.1  150s
  2795  1083    3.00000  314    -    8.00000    3.00000  62.5%   1.1  159s
  2825  1107    4.00000  310    -    8.00000    3.00000  62.5%   1.1  160s
  2871  1105    3.00000  314    -    8.00000    3.00000  62.5%   1.1  173s
  2988  1118    6.00000  319    2    8.00000    3.00000  62.5%   1.1  189s
  3114  1146    4.00000   49    -    8.00000    3.00000  62.5%   1.1  190s
  3200  1239    7.00000  410    -    8.00000    3.00000  62.5%   1.1  204s
  3288  1334    4.00000  265    -    8.00000    3.00000  62.5%   1.1  205s
  3304  1276    7.00000  410    -    8.00000    3.00000  62.5%   1.1  223s
  3436  1308    7.00000  410    -    8.00000    3.00000  62.5%   1.2  241s
  3558  1378    3.00000  193    2    8.00000    3.00000  62.5%   1.2  260s
  3757  1485    5.00000  319    -    8.00000    3.00000  62.5%   1.2  279s
  3932  1575    7.00000  342    -    8.00000    3.00000  62.5%   1.2  306s
  4093  1623    3.00000  122    -    8.00000    3.00000  62.5%   1.2  330s
  4250  1686    5.00000  319    -    8.00000    3.00000  62.5%   1.2  353s
  4644  2120    4.00000    9    2    8.00000    3.00000  62.5%   1.2  468s
  4646  2121    6.50000  408 4715    8.00000    3.00000  62.5%   1.2  547s
  4648  2124    3.00000  164    2    8.00000    3.00000  62.5%   9.0  725s
  4650  2125    4.00000   98 4695    8.00000    3.00000  62.5%   9.0 1388s
  4651  2126    7.00000  356 2817    8.00000    3.00000  62.5%   9.0 1556s
  4652  2127    3.00000   74 4185    8.00000    3.00000  62.5%   9.0 1681s
  4653  2127    4.00000  172 4184    8.00000    3.00000  62.5%   9.0 1698s
  4654  2128    3.00000   64 3480    8.00000    3.00000  62.5%   9.0 1830s
  4655  2129    3.00000  108 3644    8.00000    3.00000  62.5%   9.0 1869s
  4656  2129    3.00000  288 3619    8.00000    3.00000  62.5%   9.0 1930s
  4657  2130    4.00000  209 3450    8.00000    3.00000  62.5%   9.0 1952s
  4658  2131    6.50000  337 3379    8.00000    3.00000  62.5%   9.0 2012s
  4659  2131    3.00000  271 3371    8.00000    3.00000  62.5%   9.0 2031s
  4660  2132    3.00000  144 3285    8.00000    3.00000  62.5%   9.0 2063s
  4661  2133    4.00000  241 3286    8.00000    3.00000  62.5%   9.0 2076s
  4662  2133    5.00000  325 3607    8.00000    3.00000  62.5%   9.0 2187s
  4663  2134    7.00000  328 3619    8.00000    3.00000  62.5%   9.0 2211s
  4664  2135    7.00000  395 3913    8.00000    3.00000  62.5%   9.0 2268s
  4665  2135    4.00000  138 3905    8.00000    3.00000  62.5%   9.0 2293s
  4666  2136    4.00000  160 3383    8.00000    3.00000  62.5%   9.0 2349s
  4667  2137    3.00000  132 3523    8.00000    3.00000  62.5%   9.0 2376s
  4668  2137    3.00000  316 3571    8.00000    3.00000  62.5%   9.0 2441s
  4669  2138    4.00000   97 3571    8.00000    3.00000  62.5%   9.0 2453s
  4670  2139    3.00000  144 3571    8.00000    3.00000  62.5%   9.0 2569s
  4671  2142    3.00000   29 3596    8.00000    3.00000  62.5%  73.8 2874s
  4673  2144    3.00000   30 3624    8.00000    3.00000  62.5%  84.7 2917s
  4675  2145    3.32762   30 3954    8.00000    3.00000  62.5%  94.3 3197s
  4677  2146    3.00000   31 3032    8.00000    3.00000  62.5%   102 3228s
  4679  2148    3.39423   31 3949    8.00000    3.00000  62.5%   109 3444s
  4681  2149    3.00000   32 3644    8.00000    3.00000  62.5%   119 3475s

Cutting planes:
  Gomory: 3
  Zero half: 32

Explored 4683 nodes (565992 simplex iterations) in 3600.26 seconds
Thread count was 4 (of 4 available processors)

Solution count 5: 8 9 11 ... 505

Time limit reached
Best objective 8.000000000000e+00, best bound 3.000000000000e+00, gap 62.5000%
Warning: Q constraint 0 doesn't have a name
